c Bipartite assignment problem - 3x3
c 3 workers (nodes 1-3) to 3 tasks (nodes 4-6)
c Cost matrix:
c   Task 4  Task 5  Task 6
c W1:  1      4      3
c W2:  2      2      5
c W3:  3      1      2
c Optimal assignment: 1->4 (cost 1), 2->5 (cost 2), 3->6 (cost 2)
c Optimal value: 1 + 2 + 2 = 5
p min 6 9
n 1 1
n 2 1
n 3 1
n 4 -1
n 5 -1
n 6 -1
a 1 4 0 1 1
a 1 5 0 1 4
a 1 6 0 1 3
a 2 4 0 1 2
a 2 5 0 1 2
a 2 6 0 1 5
a 3 4 0 1 3
a 3 5 0 1 1
a 3 6 0 1 2